proyfinal/src/viki/013/experimentInOfficeAgust.take6.output/d5da718f-3558-4ecf-bc60-5f9286e67179.als.dat
{'cnf.clauses': '118081',
 'cnf.totvars': '69608',
 'conflict literals': '7',
 'conflicts': '6',
 'decisions': '657',
 'memused.mb': '14.74',
 'outcome': 'UNSAT',
 'propagations': '21823',
 'restarts': '1',
 'solver.msecs': 31,
 'task.msecs': 78}
