proyfinal/src/viki/013/experimentInOfficeAgust.take6.output/d5da718f-3558-4ecf-bc60-5f9286e67179.als.out
Reading from standard input... Use '--help' for help.
============================[ Problem Statistics ]=============================
|                                                                             |
|  Number of variables:         69608                                         |
|  Number of clauses:          118081                                         |
|  Parse time:                   0.02 s                                       |
|                                                                             |
============================[ Search Statistics ]==============================
| Conflicts |          ORIGINAL         |          LEARNT          | Progress |
|           |    Vars  Clauses Literals |    Limit  Clauses Lit/Cl |          |
===============================================================================
===============================================================================
restarts              : 1
conflicts             : 6              (191 /sec)
decisions             : 657            (0.00 % random) (20962 /sec)
propagations          : 21823          (696264 /sec)
conflict literals     : 7              (0.00 % deleted)
Memory used           : 14.74 MB
CPU time              : 0.031343 s

UNSATISFIABLE
